NAME : RC101
TYPE : CVRPTW
DIMENSION : 26
VEHICLES : 4
CAPACITY : 200
SERVICE_TIME : 10
SCALE : 10
EDGE_WEIGHT_TYPE : FLOOR_2D
NODE_COORD_SECTION
1 40 50
2 25 85
3 22 75
4 22 85
5 20 80
6 20 85
7 18 75
8 15 75
9 15 80
10 10 35
11 10 40
12 8 40
13 8 45
14 5 35
15 5 45
16 2 40
17 0 40
18 0 45
19 44 5
20 42 10
21 42 15
22 40 5
23 40 15
24 38 5
25 38 15
26 35 5
DEMAND_SECTION
1 0
2 20
3 30
4 10
5 40
6 20
7 20
8 20
9 10
10 20
11 30
12 40
13 20
14 10
15 10
16 20
17 20
18 20
19 20
20 40
21 10
22 10
23 40
24 30
25 10
26 20
TIME_WINDOW_SECTION
1 0 240
2 145 175
3 50 80
4 109 139
5 141 171
6 41 71
7 95 125
8 79 109
9 91 121
10 91 121
11 119 149
12 59 89
13 64 94
14 142 172
15 35 65
16 58 88
17 72 102
18 149 179
19 87 117
20 72 102
21 122 152
22 67 97
23 92 122
24 65 95
25 148 178
26 154 184
DEPOT_SECTION
1 
-1
EOF
